istanza3.txt
istanza3
250
96
15
28.48,431.16,274.86,419.07,105.55,341.57,225.40,222.79,225.55,27.13,416.99,444.95,164.43,33.40,165.59
0,0,0,0,0,0,1,0,1,1,0,1,0,1,0,1,1,1,1,1,0,1,1,0,0,1,0,1,0,0,1,0,1,0,0,1,0,0,1,1,1,0,0,1,1,1,0,0,1,1,0,0,1,1,1,1,0,0,1,1,1,0,1,0,0,0,1,1,0,1,1,1,0,0,1,1,1,1,0,1,0,1,0,0,1,1,0,1,1,1,0,0,1,0,1,0,1,1,0,1,1,0,0,0,1,0,0,0,0,0,1,0,1,0,1,1,1,1,1,1,0,0,1,1,0,0,0,1,0,1,1,0,0,1,0,1,0,0,0,0,0,0,1,0,1,1,1,0,0,1,1,0,1,0,1,0,0,1,1,1,0,1,1,0,0,1,1,1,0,1,1,0,0,1,1,0,0,0,1,1,0,1,1,1,0,0,1,0,1,1,0,0,1,0,0,0,0,0,0,1,0,1,1,0,0,0,1,1,1,0,0,1,0,0,0,0,0,1,1,1,0,1,1,1,0,1,1,0,0,0,1,1,1,1,0,0,0,0,0,1,0,1,1,1,0,1,1,1,1,1
13,13,0,2,11,5,10,12,5,15,1,12,4,0,3,2,1,1,4,8,12,5,7,6,12,13,14,8,4,14,13,15,6,0,7,8,6,15,12,3,5,4,8,12,7,7,10,5,8,11,11,2,8,1,1,14,11,1,9,14,13,1,2,11,9,3,6,4,8,12,9,0,14,15,7,10,12,14,4,7,6,2,8,14,13,10,3,14,15,9,6,11,1,2,3,8,14,5,1,13,14,7,3,12,5,5,9,4,4,4,10,7,13,3,14,11,11,3,0,3,0,5,1,5,6,2,14,1,7,0,10,11,15,9,6,13,14,5,5,10,1,13,10,8,3,4,1,9,0,3,10,6,2,4,9,3,2,1,12,12,13,15,14,8,2,7,11,15,15,4,8,9,12,13,8,6,13,9,6,13,3,1,10,14,14,11,2,4,2,13,2,0,8,1,1,14,1,11,1,1,14,8,12,12,1,10,10,6,15,6,0,10,12,11,12,10,4,9,14,2,9,8,6,0,4,7,10,15,4,0,1,1,4,13,6,12,0,11,12,4,3,9,12,8,2,14,0,6,1,12
7,24,75,40,48,6,5,12
05:00,22:00
1238,1362,1150,1075,1175,1125,1125
