istanza3.log

Gurobi 9.5.1 (linux64, Java) logging started mer 8 feb 2023, 22:09:31

Set parameter Username
Academic license - for non-commercial use only - expires 2023-12-01

Gurobi 9.5.1 (linux64, Java) logging started mer 8 feb 2023, 22:14:02

Set parameter Username
Academic license - for non-commercial use only - expires 2023-12-01

Gurobi 9.5.1 (linux64, Java) logging started mer 8 feb 2023, 22:15:35

Set parameter Username
Academic license - for non-commercial use only - expires 2023-12-01

Gurobi 9.5.1 (linux64, Java) logging started ven 10 feb 2023, 16:02:36

Set parameter Username
Academic license - for non-commercial use only - expires 2023-12-01
Set parameter Presolve to value 0
Set parameter MIPGap to value 1e-12
Set parameter TimeLimit to value 300
